c File: flat75_3_0.col
c
c SOURCE: Joseph Culberson (joe@cs.ualberta.ca)
c DESCRIPTION: Quasi-random coloring problem
c              generated with flatness = 0
c                             probability = 0.096
c                             known coloring = 3
c                             random seed = 1094
c              Creation Date:  Wed Feb 24 10:42:15 1999
c Maximum degree = 8 Minimum degree = 1
c COLOR VERIFICATION: Using the permuted order
c under simple greedy yields the specified
c coloring number
c Color = 3 specified partitions = 3
c p edge 75 180
c cnf created by edge2cnf
p cnf 225 840
-1 -2 0
-1 -3 0
-2 -3 0
1 2 3 0
-4 -5 0
-4 -6 0
-5 -6 0
4 5 6 0
-7 -8 0
-7 -9 0
-8 -9 0
7 8 9 0
-10 -11 0
-10 -12 0
-11 -12 0
10 11 12 0
-13 -14 0
-13 -15 0
-14 -15 0
13 14 15 0
-16 -17 0
-16 -18 0
-17 -18 0
16 17 18 0
-19 -20 0
-19 -21 0
-20 -21 0
19 20 21 0
-22 -23 0
-22 -24 0
-23 -24 0
22 23 24 0
-25 -26 0
-25 -27 0
-26 -27 0
25 26 27 0
-28 -29 0
-28 -30 0
-29 -30 0
28 29 30 0
-31 -32 0
-31 -33 0
-32 -33 0
31 32 33 0
-34 -35 0
-34 -36 0
-35 -36 0
34 35 36 0
-37 -38 0
-37 -39 0
-38 -39 0
37 38 39 0
-40 -41 0
-40 -42 0
-41 -42 0
40 41 42 0
-43 -44 0
-43 -45 0
-44 -45 0
43 44 45 0
-46 -47 0
-46 -48 0
-47 -48 0
46 47 48 0
-49 -50 0
-49 -51 0
-50 -51 0
49 50 51 0
-52 -53 0
-52 -54 0
-53 -54 0
52 53 54 0
-55 -56 0
-55 -57 0
-56 -57 0
55 56 57 0
-58 -59 0
-58 -60 0
-59 -60 0
58 59 60 0
-61 -62 0
-61 -63 0
-62 -63 0
61 62 63 0
-64 -65 0
-64 -66 0
-65 -66 0
64 65 66 0
-67 -68 0
-67 -69 0
-68 -69 0
67 68 69 0
-70 -71 0
-70 -72 0
-71 -72 0
70 71 72 0
-73 -74 0
-73 -75 0
-74 -75 0
73 74 75 0
-76 -77 0
-76 -78 0
-77 -78 0
76 77 78 0
-79 -80 0
-79 -81 0
-80 -81 0
79 80 81 0
-82 -83 0
-82 -84 0
-83 -84 0
82 83 84 0
-85 -86 0
-85 -87 0
-86 -87 0
85 86 87 0
-88 -89 0
-88 -90 0
-89 -90 0
88 89 90 0
-91 -92 0
-91 -93 0
-92 -93 0
91 92 93 0
-94 -95 0
-94 -96 0
-95 -96 0
94 95 96 0
-97 -98 0
-97 -99 0
-98 -99 0
97 98 99 0
-100 -101 0
-100 -102 0
-101 -102 0
100 101 102 0
-103 -104 0
-103 -105 0
-104 -105 0
103 104 105 0
-106 -107 0
-106 -108 0
-107 -108 0
106 107 108 0
-109 -110 0
-109 -111 0
-110 -111 0
109 110 111 0
-112 -113 0
-112 -114 0
-113 -114 0
112 113 114 0
-115 -116 0
-115 -117 0
-116 -117 0
115 116 117 0
-118 -119 0
-118 -120 0
-119 -120 0
118 119 120 0
-121 -122 0
-121 -123 0
-122 -123 0
121 122 123 0
-124 -125 0
-124 -126 0
-125 -126 0
124 125 126 0
-127 -128 0
-127 -129 0
-128 -129 0
127 128 129 0
-130 -131 0
-130 -132 0
-131 -132 0
130 131 132 0
-133 -134 0
-133 -135 0
-134 -135 0
133 134 135 0
-136 -137 0
-136 -138 0
-137 -138 0
136 137 138 0
-139 -140 0
-139 -141 0
-140 -141 0
139 140 141 0
-142 -143 0
-142 -144 0
-143 -144 0
142 143 144 0
-145 -146 0
-145 -147 0
-146 -147 0
145 146 147 0
-148 -149 0
-148 -150 0
-149 -150 0
148 149 150 0
-151 -152 0
-151 -153 0
-152 -153 0
151 152 153 0
-154 -155 0
-154 -156 0
-155 -156 0
154 155 156 0
-157 -158 0
-157 -159 0
-158 -159 0
157 158 159 0
-160 -161 0
-160 -162 0
-161 -162 0
160 161 162 0
-163 -164 0
-163 -165 0
-164 -165 0
163 164 165 0
-166 -167 0
-166 -168 0
-167 -168 0
166 167 168 0
-169 -170 0
-169 -171 0
-170 -171 0
169 170 171 0
-172 -173 0
-172 -174 0
-173 -174 0
172 173 174 0
-175 -176 0
-175 -177 0
-176 -177 0
175 176 177 0
-178 -179 0
-178 -180 0
-179 -180 0
178 179 180 0
-181 -182 0
-181 -183 0
-182 -183 0
181 182 183 0
-184 -185 0
-184 -186 0
-185 -186 0
184 185 186 0
-187 -188 0
-187 -189 0
-188 -189 0
187 188 189 0
-190 -191 0
-190 -192 0
-191 -192 0
190 191 192 0
-193 -194 0
-193 -195 0
-194 -195 0
193 194 195 0
-196 -197 0
-196 -198 0
-197 -198 0
196 197 198 0
-199 -200 0
-199 -201 0
-200 -201 0
199 200 201 0
-202 -203 0
-202 -204 0
-203 -204 0
202 203 204 0
-205 -206 0
-205 -207 0
-206 -207 0
205 206 207 0
-208 -209 0
-208 -210 0
-209 -210 0
208 209 210 0
-211 -212 0
-211 -213 0
-212 -213 0
211 212 213 0
-214 -215 0
-214 -216 0
-215 -216 0
214 215 216 0
-217 -218 0
-217 -219 0
-218 -219 0
217 218 219 0
-220 -221 0
-220 -222 0
-221 -222 0
220 221 222 0
-223 -224 0
-223 -225 0
-224 -225 0
223 224 225 0
-28 -1 0
-29 -2 0
-30 -3 0
-91 -1 0
-92 -2 0
-93 -3 0
-139 -4 0
-140 -5 0
-141 -6 0
-10 -7 0
-11 -8 0
-12 -9 0
-115 -7 0
-116 -8 0
-117 -9 0
-58 -10 0
-59 -11 0
-60 -12 0
-88 -10 0
-89 -11 0
-90 -12 0
-127 -10 0
-128 -11 0
-129 -12 0
-73 -13 0
-74 -14 0
-75 -15 0
-175 -13 0
-176 -14 0
-177 -15 0
-217 -13 0
-218 -14 0
-219 -15 0
-28 -16 0
-29 -17 0
-30 -18 0
-115 -16 0
-116 -17 0
-117 -18 0
-148 -16 0
-149 -17 0
-150 -18 0
-157 -16 0
-158 -17 0
-159 -18 0
-217 -16 0
-218 -17 0
-219 -18 0
-40 -19 0
-41 -20 0
-42 -21 0
-61 -19 0
-62 -20 0
-63 -21 0
-67 -19 0
-68 -20 0
-69 -21 0
-73 -19 0
-74 -20 0
-75 -21 0
-106 -19 0
-107 -20 0
-108 -21 0
-124 -19 0
-125 -20 0
-126 -21 0
-205 -19 0
-206 -20 0
-207 -21 0
-121 -22 0
-122 -23 0
-123 -24 0
-151 -22 0
-152 -23 0
-153 -24 0
-172 -22 0
-173 -23 0
-174 -24 0
-187 -22 0
-188 -23 0
-189 -24 0
-40 -25 0
-41 -26 0
-42 -27 0
-79 -25 0
-80 -26 0
-81 -27 0
-121 -25 0
-122 -26 0
-123 -27 0
-142 -25 0
-143 -26 0
-144 -27 0
-88 -28 0
-89 -29 0
-90 -30 0
-109 -28 0
-110 -29 0
-111 -30 0
-136 -28 0
-137 -29 0
-138 -30 0
-145 -28 0
-146 -29 0
-147 -30 0
-49 -31 0
-50 -32 0
-51 -33 0
-103 -31 0
-104 -32 0
-105 -33 0
-133 -31 0
-134 -32 0
-135 -33 0
-139 -31 0
-140 -32 0
-141 -33 0
-148 -31 0
-149 -32 0
-150 -33 0
-202 -31 0
-203 -32 0
-204 -33 0
-76 -34 0
-77 -35 0
-78 -36 0
-118 -34 0
-119 -35 0
-120 -36 0
-130 -34 0
-131 -35 0
-132 -36 0
-208 -34 0
-209 -35 0
-210 -36 0
-211 -34 0
-212 -35 0
-213 -36 0
-76 -37 0
-77 -38 0
-78 -39 0
-172 -37 0
-173 -38 0
-174 -39 0
-211 -37 0
-212 -38 0
-213 -39 0
-61 -40 0
-62 -41 0
-63 -42 0
-133 -40 0
-134 -41 0
-135 -42 0
-196 -40 0
-197 -41 0
-198 -42 0
-205 -40 0
-206 -41 0
-207 -42 0
-49 -43 0
-50 -44 0
-51 -45 0
-82 -43 0
-83 -44 0
-84 -45 0
-52 -46 0
-53 -47 0
-54 -48 0
-64 -46 0
-65 -47 0
-66 -48 0
-91 -46 0
-92 -47 0
-93 -48 0
-118 -46 0
-119 -47 0
-120 -48 0
-130 -46 0
-131 -47 0
-132 -48 0
-169 -46 0
-170 -47 0
-171 -48 0
-178 -46 0
-179 -47 0
-180 -48 0
-193 -46 0
-194 -47 0
-195 -48 0
-58 -49 0
-59 -50 0
-60 -51 0
-106 -49 0
-107 -50 0
-108 -51 0
-130 -49 0
-131 -50 0
-132 -51 0
-217 -49 0
-218 -50 0
-219 -51 0
-154 -52 0
-155 -53 0
-156 -54 0
-166 -52 0
-167 -53 0
-168 -54 0
-181 -52 0
-182 -53 0
-183 -54 0
-202 -52 0
-203 -53 0
-204 -54 0
-94 -55 0
-95 -56 0
-96 -57 0
-118 -55 0
-119 -56 0
-120 -57 0
-163 -55 0
-164 -56 0
-165 -57 0
-220 -55 0
-221 -56 0
-222 -57 0
-91 -58 0
-92 -59 0
-93 -60 0
-109 -58 0
-110 -59 0
-111 -60 0
-139 -58 0
-140 -59 0
-141 -60 0
-178 -58 0
-179 -59 0
-180 -60 0
-205 -58 0
-206 -59 0
-207 -60 0
-163 -61 0
-164 -62 0
-165 -63 0
-202 -61 0
-203 -62 0
-204 -63 0
-208 -61 0
-209 -62 0
-210 -63 0
-112 -64 0
-113 -65 0
-114 -66 0
-127 -64 0
-128 -65 0
-129 -66 0
-136 -64 0
-137 -65 0
-138 -66 0
-139 -64 0
-140 -65 0
-141 -66 0
-151 -64 0
-152 -65 0
-153 -66 0
-178 -64 0
-179 -65 0
-180 -66 0
-100 -67 0
-101 -68 0
-102 -69 0
-142 -67 0
-143 -68 0
-144 -69 0
-157 -67 0
-158 -68 0
-159 -69 0
-103 -70 0
-104 -71 0
-105 -72 0
-79 -73 0
-80 -74 0
-81 -75 0
-163 -73 0
-164 -74 0
-165 -75 0
-214 -73 0
-215 -74 0
-216 -75 0
-223 -73 0
-224 -74 0
-225 -75 0
-142 -76 0
-143 -77 0
-144 -78 0
-160 -76 0
-161 -77 0
-162 -78 0
-190 -76 0
-191 -77 0
-192 -78 0
-91 -79 0
-92 -80 0
-93 -81 0
-196 -79 0
-197 -80 0
-198 -81 0
-121 -82 0
-122 -83 0
-123 -84 0
-124 -82 0
-125 -83 0
-126 -84 0
-175 -82 0
-176 -83 0
-177 -84 0
-88 -85 0
-89 -86 0
-90 -87 0
-133 -85 0
-134 -86 0
-135 -87 0
-151 -85 0
-152 -86 0
-153 -87 0
-178 -85 0
-179 -86 0
-180 -87 0
-133 -88 0
-134 -89 0
-135 -90 0
-136 -88 0
-137 -89 0
-138 -90 0
-157 -88 0
-158 -89 0
-159 -90 0
-115 -91 0
-116 -92 0
-117 -93 0
-130 -91 0
-131 -92 0
-132 -93 0
-154 -91 0
-155 -92 0
-156 -93 0
-199 -94 0
-200 -95 0
-201 -96 0
-100 -97 0
-101 -98 0
-102 -99 0
-115 -97 0
-116 -98 0
-117 -99 0
-172 -97 0
-173 -98 0
-174 -99 0
-220 -97 0
-221 -98 0
-222 -99 0
-142 -100 0
-143 -101 0
-144 -102 0
-175 -100 0
-176 -101 0
-177 -102 0
-211 -100 0
-212 -101 0
-213 -102 0
-217 -100 0
-218 -101 0
-219 -102 0
-109 -103 0
-110 -104 0
-111 -105 0
-160 -103 0
-161 -104 0
-162 -105 0
-124 -106 0
-125 -107 0
-126 -108 0
-157 -106 0
-158 -107 0
-159 -108 0
-202 -106 0
-203 -107 0
-204 -108 0
-151 -109 0
-152 -110 0
-153 -111 0
-190 -109 0
-191 -110 0
-192 -111 0
-199 -109 0
-200 -110 0
-201 -111 0
-202 -109 0
-203 -110 0
-204 -111 0
-148 -112 0
-149 -113 0
-150 -114 0
-151 -112 0
-152 -113 0
-153 -114 0
-175 -112 0
-176 -113 0
-177 -114 0
-190 -112 0
-191 -113 0
-192 -114 0
-190 -115 0
-191 -116 0
-192 -117 0
-202 -115 0
-203 -116 0
-204 -117 0
-127 -118 0
-128 -119 0
-129 -120 0
-154 -118 0
-155 -119 0
-156 -120 0
-172 -118 0
-173 -119 0
-174 -120 0
-196 -118 0
-197 -119 0
-198 -120 0
-133 -121 0
-134 -122 0
-135 -123 0
-151 -121 0
-152 -122 0
-153 -123 0
-163 -127 0
-164 -128 0
-165 -129 0
-184 -130 0
-185 -131 0
-186 -132 0
-178 -133 0
-179 -134 0
-180 -135 0
-181 -133 0
-182 -134 0
-183 -135 0
-205 -133 0
-206 -134 0
-207 -135 0
-175 -142 0
-176 -143 0
-177 -144 0
-196 -142 0
-197 -143 0
-198 -144 0
-211 -142 0
-212 -143 0
-213 -144 0
-214 -142 0
-215 -143 0
-216 -144 0
-193 -145 0
-194 -146 0
-195 -147 0
-199 -145 0
-200 -146 0
-201 -147 0
-190 -148 0
-191 -149 0
-192 -150 0
-202 -148 0
-203 -149 0
-204 -150 0
-208 -148 0
-209 -149 0
-210 -150 0
-178 -151 0
-179 -152 0
-180 -153 0
-169 -157 0
-170 -158 0
-171 -159 0
-205 -157 0
-206 -158 0
-207 -159 0
-199 -160 0
-200 -161 0
-201 -162 0
-208 -160 0
-209 -161 0
-210 -162 0
-208 -163 0
-209 -164 0
-210 -165 0
-214 -163 0
-215 -164 0
-216 -165 0
-169 -166 0
-170 -167 0
-171 -168 0
-187 -169 0
-188 -170 0
-189 -171 0
-208 -169 0
-209 -170 0
-210 -171 0
-211 -172 0
-212 -173 0
-213 -174 0
-178 -175 0
-179 -176 0
-180 -177 0
-196 -175 0
-197 -176 0
-198 -177 0
-199 -178 0
-200 -179 0
-201 -180 0
-190 -181 0
-191 -182 0
-192 -183 0
-205 -181 0
-206 -182 0
-207 -183 0
-205 -187 0
-206 -188 0
-207 -189 0
-205 -190 0
-206 -191 0
-207 -192 0
-208 -193 0
-209 -194 0
-210 -195 0
-223 -193 0
-224 -194 0
-225 -195 0
-217 -199 0
-218 -200 0
-219 -201 0
